sat
(model
; cardinality of BoundSet is 3
(declare-sort BoundSet 0)
; rep: @uc_BoundSet_0
; rep: @uc_BoundSet_1
; rep: @uc_BoundSet_2
(declare-sort UnboundSet 0)
(define-fun c1 () BoundSet @uc_BoundSet_0)
(define-fun c2 () BoundSet @uc_BoundSet_0)
(define-fun c3 () BoundSet @uc_BoundSet_0)
(define-fun IsImitated ((BOUND_VARIABLE_362 BoundSet) (BOUND_VARIABLE_363 BoundSet)) Bool true)
(define-fun IsAtParty ((BOUND_VARIABLE_369 BoundSet)) Bool false)
)
